NAME : cgl_28.2833.tour
COMMENT : Length = 2833
COMMENT : Found by LKH-3 [Keld Helsgaun] Fri Nov  8 17:38:18 2024
TYPE : TOUR
DIMENSION : 29
TOUR_SECTION
17
29
3
22
7
5
11
10
6
9
4
2
1
12
8
28
27
26
25
24
23
13
21
15
19
14
18
16
20
-1
EOF
